output/molting_ilp.lp
Maximize
  0.0284237745365966 Z_278_1_0 + 0.00135845313291922 Z_278_1_1
   + 0.0715865116459298 Z_278_1_2 + 0.00728533395023122 Z_278_1_3
   + 0.7913459267343232 Z_278_1_4 + 0.00110110610390376 Z_278_3_0
   + 0.00106596333259321 Z_278_3_1 + 0.7526252743503808 Z_278_3_2
   + 0.00328427672776908 Z_278_3_3 + 0.141923379485353 Z_278_3_4
   + 0.0284237745365966 Z_278_0_0 + 0.00135845313291922 Z_278_0_1
   + 0.0715865116459298 Z_278_0_2 + 0.00728533395023122 Z_278_0_3
   + 0.7913459267343232 Z_278_0_4 + 0.1125200267221888 Z_278_5_0
   + 0.00292737622626378 Z_278_5_1 + 0.0045909 Z_278_5_2
   + 0.0613670736929241 Z_278_5_3 + 0.7185946234392692 Z_278_5_4
   + 0.00110110610390376 Z_278_2_0 + 0.00106596333259321 Z_278_2_1
   + 0.7526252743503808 Z_278_2_2 + 0.00328427672776908 Z_278_2_3
   + 0.141923379485353 Z_278_2_4 + 0.6064132555055031 Z_717_2_0
   + 0.019792412075562 Z_717_2_1 + 0.00429507513848955 Z_717_2_2
   + 0.0972207366816106 Z_717_2_3 + 0.1722785205988349 Z_717_2_4
   + 0.00261001563081033 Z_717_0_0 + 0.00111226381683038 Z_717_0_1
   + 0.6764890201058827 Z_717_0_2 + 0.00296739388073728 Z_717_0_3
   + 0.2168213065657392 Z_717_0_4 + 0.00261001563081033 Z_717_1_0
   + 0.00111226381683038 Z_717_1_1 + 0.6764890201058827 Z_717_1_2
   + 0.00296739388073728 Z_717_1_3 + 0.2168213065657392 Z_717_1_4
   + 0.00302429868692998 Z_465_0_0 + 8.0660659159929697e-04 Z_465_0_1
   + 0.7714377945065189 Z_465_0_2 + 0.00376253978112224 Z_465_0_3
   + 0.1209687604338295 Z_465_0_4 + 0.00442757025544445 Z_318_0_0
   + 7.3656912214475673e-04 Z_318_0_1 + 0.8120653278888658 Z_318_0_2
   + 0.00285503954742774 Z_318_0_3 + 0.0799154931861173 Z_318_0_4
   + 7.842477719597553e-04 Z_94_0_0 + 0.00131603243414031 Z_94_0_1
   + 0.549252196280955 Z_94_0_2 + 8.8906851429506456e-04 Z_94_0_3
   + 0.3477584549986498 Z_94_0_4 + 7.842477719597553e-04 Z_608_0_0
   + 0.00131603243414031 Z_608_0_1 + 0.549252196280955 Z_608_0_2
   + 8.8906851429506456e-04 Z_608_0_3 + 0.3477584549986498 Z_608_0_4
   + 0.00106920950476099 Z_633_0_0 + 0.00149584395592049 Z_633_0_1
   + 0.6815865530220805 Z_633_0_2 + 0.00212456463654138 Z_633_0_3
   + 0.2137238288806969 Z_633_0_4 + 0.00200979859446017 Z_322_0_0
   + 0.00167224904899108 Z_322_0_1 + 0.6814054058994993 Z_322_0_2
   + 0.00165115749150766 Z_322_0_3 + 0.2132613889655417 Z_322_0_4
   + 5.8323464143926159e-04 Z_315_0_0 + 0.00161566272738364 Z_315_0_1
   + 0.7046226093341846 Z_315_0_2 + 8.9422642047744987e-04 Z_315_0_3
   + 0.1922842668765151 Z_315_0_4
Subject To
 constraint1_2781: Z_278_1_0 + Z_278_1_1 + Z_278_1_2 + Z_278_1_3
   + Z_278_1_4 <= 1
 constraint1_2783: Z_278_3_0 + Z_278_3_1 + Z_278_3_2 + Z_278_3_3
   + Z_278_3_4 <= 1
 constraint1_2780: Z_278_0_0 + Z_278_0_1 + Z_278_0_2 + Z_278_0_3
   + Z_278_0_4 <= 1
 constraint1_2785: Z_278_5_0 + Z_278_5_1 + Z_278_5_2 + Z_278_5_3
   + Z_278_5_4 <= 1
 constraint1_2782: Z_278_2_0 + Z_278_2_1 + Z_278_2_2 + Z_278_2_3
   + Z_278_2_4 <= 1
 constraint1_7172: Z_717_2_0 + Z_717_2_1 + Z_717_2_2 + Z_717_2_3
   + Z_717_2_4 <= 1
 constraint1_7170: Z_717_0_0 + Z_717_0_1 + Z_717_0_2 + Z_717_0_3
   + Z_717_0_4 <= 1
 constraint1_7171: Z_717_1_0 + Z_717_1_1 + Z_717_1_2 + Z_717_1_3
   + Z_717_1_4 <= 1
 constraint1_4650: Z_465_0_0 + Z_465_0_1 + Z_465_0_2 + Z_465_0_3
   + Z_465_0_4 <= 1
 constraint1_3180: Z_318_0_0 + Z_318_0_1 + Z_318_0_2 + Z_318_0_3
   + Z_318_0_4 <= 1
 constraint1_940: Z_94_0_0 + Z_94_0_1 + Z_94_0_2 + Z_94_0_3 + Z_94_0_4
   <= 1
 constraint1_6080: Z_608_0_0 + Z_608_0_1 + Z_608_0_2 + Z_608_0_3
   + Z_608_0_4 <= 1
 constraint1_6330: Z_633_0_0 + Z_633_0_1 + Z_633_0_2 + Z_633_0_3
   + Z_633_0_4 <= 1
 constraint1_3220: Z_322_0_0 + Z_322_0_1 + Z_322_0_2 + Z_322_0_3
   + Z_322_0_4 <= 1
 constraint1_3150: Z_315_0_0 + Z_315_0_1 + Z_315_0_2 + Z_315_0_3
   + Z_315_0_4 <= 1
 constraint2_2780: Z_278_1_0 + Z_278_3_0 + Z_278_0_0 + Z_278_5_0
   + Z_278_2_0 <= 1
 constraint2_2781: Z_278_1_1 + Z_278_3_1 + Z_278_0_1 + Z_278_5_1
   + Z_278_2_1 <= 1
 constraint2_2782: Z_278_1_2 + Z_278_3_2 + Z_278_0_2 + Z_278_5_2
   + Z_278_2_2 <= 1
 constraint2_2783: Z_278_1_3 + Z_278_3_3 + Z_278_0_3 + Z_278_5_3
   + Z_278_2_3 <= 1
 constraint2_7170: Z_717_2_0 + Z_717_0_0 + Z_717_1_0 <= 1
 constraint2_7171: Z_717_2_1 + Z_717_0_1 + Z_717_1_1 <= 1
 constraint2_7172: Z_717_2_2 + Z_717_0_2 + Z_717_1_2 <= 1
 constraint2_7173: Z_717_2_3 + Z_717_0_3 + Z_717_1_3 <= 1
 constraint2_4650: Z_465_0_0 <= 1
 constraint2_4651: Z_465_0_1 <= 1
 constraint2_4652: Z_465_0_2 <= 1
 constraint2_4653: Z_465_0_3 <= 1
 constraint2_3180: Z_318_0_0 <= 1
 constraint2_3181: Z_318_0_1 <= 1
 constraint2_3182: Z_318_0_2 <= 1
 constraint2_3183: Z_318_0_3 <= 1
 constraint2_940: Z_94_0_0 <= 1
 constraint2_941: Z_94_0_1 <= 1
 constraint2_942: Z_94_0_2 <= 1
 constraint2_943: Z_94_0_3 <= 1
 constraint2_6080: Z_608_0_0 <= 1
 constraint2_6081: Z_608_0_1 <= 1
 constraint2_6082: Z_608_0_2 <= 1
 constraint2_6083: Z_608_0_3 <= 1
 constraint2_6330: Z_633_0_0 <= 1
 constraint2_6331: Z_633_0_1 <= 1
 constraint2_6332: Z_633_0_2 <= 1
 constraint2_6333: Z_633_0_3 <= 1
 constraint2_6930: <= 1
 constraint2_6931: <= 1
 constraint2_6932: <= 1
 constraint2_6933: <= 1
 constraint2_3220: Z_322_0_0 <= 1
 constraint2_3221: Z_322_0_1 <= 1
 constraint2_3222: Z_322_0_2 <= 1
 constraint2_3223: Z_322_0_3 <= 1
 constraint2_3150: Z_315_0_0 <= 1
 constraint2_3151: Z_315_0_1 <= 1
 constraint2_3152: Z_315_0_2 <= 1
 constraint2_3153: Z_315_0_3 <= 1
Bounds
Binaries
 Z_278_1_0 Z_278_1_1 Z_278_1_2 Z_278_1_3 Z_278_1_4 Z_278_3_0 Z_278_3_1
 Z_278_3_2 Z_278_3_3 Z_278_3_4 Z_278_0_0 Z_278_0_1 Z_278_0_2 Z_278_0_3
 Z_278_0_4 Z_278_5_0 Z_278_5_1 Z_278_5_2 Z_278_5_3 Z_278_5_4 Z_278_2_0
 Z_278_2_1 Z_278_2_2 Z_278_2_3 Z_278_2_4 Z_717_2_0 Z_717_2_1 Z_717_2_2
 Z_717_2_3 Z_717_2_4 Z_717_0_0 Z_717_0_1 Z_717_0_2 Z_717_0_3 Z_717_0_4
 Z_717_1_0 Z_717_1_1 Z_717_1_2 Z_717_1_3 Z_717_1_4 Z_465_0_0 Z_465_0_1
 Z_465_0_2 Z_465_0_3 Z_465_0_4 Z_318_0_0 Z_318_0_1 Z_318_0_2 Z_318_0_3
 Z_318_0_4 Z_94_0_0 Z_94_0_1 Z_94_0_2 Z_94_0_3 Z_94_0_4 Z_608_0_0 Z_608_0_1
 Z_608_0_2 Z_608_0_3 Z_608_0_4 Z_633_0_0 Z_633_0_1 Z_633_0_2 Z_633_0_3
 Z_633_0_4 Z_322_0_0 Z_322_0_1 Z_322_0_2 Z_322_0_3 Z_322_0_4 Z_315_0_0
 Z_315_0_1 Z_315_0_2 Z_315_0_3 Z_315_0_4
End
