output/molting_ilp.mps
NAME molting_srl_ilp
* Max problem is converted into Min one
ROWS
 N  OBJ
 L  constraint1_2781
 L  constraint1_2783
 L  constraint1_2780
 L  constraint1_2785
 L  constraint1_2782
 L  constraint1_7172
 L  constraint1_7170
 L  constraint1_7171
 L  constraint1_4650
 L  constraint1_3180
 L  constraint1_940
 L  constraint1_6080
 L  constraint1_6330
 L  constraint1_3220
 L  constraint1_3150
 L  constraint2_2780
 L  constraint2_2781
 L  constraint2_2782
 L  constraint2_2783
 L  constraint2_7170
 L  constraint2_7171
 L  constraint2_7172
 L  constraint2_7173
 L  constraint2_4650
 L  constraint2_4651
 L  constraint2_4652
 L  constraint2_4653
 L  constraint2_3180
 L  constraint2_3181
 L  constraint2_3182
 L  constraint2_3183
 L  constraint2_940
 L  constraint2_941
 L  constraint2_942
 L  constraint2_943
 L  constraint2_6080
 L  constraint2_6081
 L  constraint2_6082
 L  constraint2_6083
 L  constraint2_6330
 L  constraint2_6331
 L  constraint2_6332
 L  constraint2_6333
 L  constraint2_6930
 L  constraint2_6931
 L  constraint2_6932
 L  constraint2_6933
 L  constraint2_3220
 L  constraint2_3221
 L  constraint2_3222
 L  constraint2_3223
 L  constraint2_3150
 L  constraint2_3151
 L  constraint2_3152
 L  constraint2_3153
COLUMNS
    MARKER    'MARKER'                 'INTORG'
    Z_278_1_0  OBJ       -2.8423774536596551e-02
    Z_278_1_0  constraint1_2781  1
    Z_278_1_0  constraint2_2780  1
    Z_278_1_1  OBJ       -1.3584531329192190e-03
    Z_278_1_1  constraint1_2781  1
    Z_278_1_1  constraint2_2781  1
    Z_278_1_2  OBJ       -7.1586511645929829e-02
    Z_278_1_2  constraint1_2781  1
    Z_278_1_2  constraint2_2782  1
    Z_278_1_3  OBJ       -7.2853339502312216e-03
    Z_278_1_3  constraint1_2781  1
    Z_278_1_3  constraint2_2783  1
    Z_278_1_4  OBJ       -7.9134592673432325e-01
    Z_278_1_4  constraint1_2781  1
    Z_278_3_0  OBJ       -1.1011061039037631e-03
    Z_278_3_0  constraint1_2783  1
    Z_278_3_0  constraint2_2780  1
    Z_278_3_1  OBJ       -1.0659633325932074e-03
    Z_278_3_1  constraint1_2783  1
    Z_278_3_1  constraint2_2781  1
    Z_278_3_2  OBJ       -7.5262527435038085e-01
    Z_278_3_2  constraint1_2783  1
    Z_278_3_2  constraint2_2782  1
    Z_278_3_3  OBJ       -3.2842767277690768e-03
    Z_278_3_3  constraint1_2783  1
    Z_278_3_3  constraint2_2783  1
    Z_278_3_4  OBJ       -1.4192337948535300e-01
    Z_278_3_4  constraint1_2783  1
    Z_278_0_0  OBJ       -2.8423774536596551e-02
    Z_278_0_0  constraint1_2780  1
    Z_278_0_0  constraint2_2780  1
    Z_278_0_1  OBJ       -1.3584531329192190e-03
    Z_278_0_1  constraint1_2780  1
    Z_278_0_1  constraint2_2781  1
    Z_278_0_2  OBJ       -7.1586511645929829e-02
    Z_278_0_2  constraint1_2780  1
    Z_278_0_2  constraint2_2782  1
    Z_278_0_3  OBJ       -7.2853339502312216e-03
    Z_278_0_3  constraint1_2780  1
    Z_278_0_3  constraint2_2783  1
    Z_278_0_4  OBJ       -7.9134592673432325e-01
    Z_278_0_4  constraint1_2780  1
    Z_278_5_0  OBJ       -1.1252002672218882e-01
    Z_278_5_0  constraint1_2785  1
    Z_278_5_0  constraint2_2780  1
    Z_278_5_1  OBJ       -2.9273762262637839e-03
    Z_278_5_1  constraint1_2785  1
    Z_278_5_1  constraint2_2781  1
    Z_278_5_2  OBJ       -4.5908999193540970e-03
    Z_278_5_2  constraint1_2785  1
    Z_278_5_2  constraint2_2782  1
    Z_278_5_3  OBJ       -6.1367073692924150e-02
    Z_278_5_3  constraint1_2785  1
    Z_278_5_3  constraint2_2783  1
    Z_278_5_4  OBJ       -7.1859462343926916e-01
    Z_278_5_4  constraint1_2785  1
    Z_278_2_0  OBJ       -1.1011061039037631e-03
    Z_278_2_0  constraint1_2782  1
    Z_278_2_0  constraint2_2780  1
    Z_278_2_1  OBJ       -1.0659633325932074e-03
    Z_278_2_1  constraint1_2782  1
    Z_278_2_1  constraint2_2781  1
    Z_278_2_2  OBJ       -7.5262527435038085e-01
    Z_278_2_2  constraint1_2782  1
    Z_278_2_2  constraint2_2782  1
    Z_278_2_3  OBJ       -3.2842767277690768e-03
    Z_278_2_3  constraint1_2782  1
    Z_278_2_3  constraint2_2783  1
    Z_278_2_4  OBJ       -1.4192337948535300e-01
    Z_278_2_4  constraint1_2782  1
    Z_717_2_0  OBJ       -6.0641325550550307e-01
    Z_717_2_0  constraint1_7172  1
    Z_717_2_0  constraint2_7170  1
    Z_717_2_1  OBJ       -1.9792412075561951e-02
    Z_717_2_1  constraint1_7172  1
    Z_717_2_1  constraint2_7171  1
    Z_717_2_2  OBJ       -4.2950751384895547e-03
    Z_717_2_2  constraint1_7172  1
    Z_717_2_2  constraint2_7172  1
    Z_717_2_3  OBJ       -9.7220736681610562e-02
    Z_717_2_3  constraint1_7172  1
    Z_717_2_3  constraint2_7173  1
    Z_717_2_4  OBJ       -1.7227852059883486e-01
    Z_717_2_4  constraint1_7172  1
    Z_717_0_0  OBJ       -2.6100156308103348e-03
    Z_717_0_0  constraint1_7170  1
    Z_717_0_0  constraint2_7170  1
    Z_717_0_1  OBJ       -1.1122638168303775e-03
    Z_717_0_1  constraint1_7170  1
    Z_717_0_1  constraint2_7171  1
    Z_717_0_2  OBJ       -6.7648902010588274e-01
    Z_717_0_2  constraint1_7170  1
    Z_717_0_2  constraint2_7172  1
    Z_717_0_3  OBJ       -2.9673938807372787e-03
    Z_717_0_3  constraint1_7170  1
    Z_717_0_3  constraint2_7173  1
    Z_717_0_4  OBJ       -2.1682130656573922e-01
    Z_717_0_4  constraint1_7170  1
    Z_717_1_0  OBJ       -2.6100156308103348e-03
    Z_717_1_0  constraint1_7171  1
    Z_717_1_0  constraint2_7170  1
    Z_717_1_1  OBJ       -1.1122638168303775e-03
    Z_717_1_1  constraint1_7171  1
    Z_717_1_1  constraint2_7171  1
    Z_717_1_2  OBJ       -6.7648902010588274e-01
    Z_717_1_2  constraint1_7171  1
    Z_717_1_2  constraint2_7172  1
    Z_717_1_3  OBJ       -2.9673938807372787e-03
    Z_717_1_3  constraint1_7171  1
    Z_717_1_3  constraint2_7173  1
    Z_717_1_4  OBJ       -2.1682130656573922e-01
    Z_717_1_4  constraint1_7171  1
    Z_465_0_0  OBJ       -3.0242986869299777e-03
    Z_465_0_0  constraint1_4650  1
    Z_465_0_0  constraint2_4650  1
    Z_465_0_1  OBJ       -8.0660659159929697e-04
    Z_465_0_1  constraint1_4650  1
    Z_465_0_1  constraint2_4651  1
    Z_465_0_2  OBJ       -7.7143779450651895e-01
    Z_465_0_2  constraint1_4650  1
    Z_465_0_2  constraint2_4652  1
    Z_465_0_3  OBJ       -3.7625397811222416e-03
    Z_465_0_3  constraint1_4650  1
    Z_465_0_3  constraint2_4653  1
    Z_465_0_4  OBJ       -1.2096876043382951e-01
    Z_465_0_4  constraint1_4650  1
    Z_318_0_0  OBJ       -4.4275702554444490e-03
    Z_318_0_0  constraint1_3180  1
    Z_318_0_0  constraint2_3180  1
    Z_318_0_1  OBJ       -7.3656912214475673e-04
    Z_318_0_1  constraint1_3180  1
    Z_318_0_1  constraint2_3181  1
    Z_318_0_2  OBJ       -8.1206532788886576e-01
    Z_318_0_2  constraint1_3180  1
    Z_318_0_2  constraint2_3182  1
    Z_318_0_3  OBJ       -2.8550395474277374e-03
    Z_318_0_3  constraint1_3180  1
    Z_318_0_3  constraint2_3183  1
    Z_318_0_4  OBJ       -7.9915493186117306e-02
    Z_318_0_4  constraint1_3180  1
    Z_94_0_0  OBJ       -7.8424777195975530e-04
    Z_94_0_0  constraint1_940  1
    Z_94_0_0  constraint2_940  1
    Z_94_0_1  OBJ       -1.3160324341403066e-03
    Z_94_0_1  constraint1_940  1
    Z_94_0_1  constraint2_941  1
    Z_94_0_2  OBJ       -5.4925219628095501e-01
    Z_94_0_2  constraint1_940  1
    Z_94_0_2  constraint2_942  1
    Z_94_0_3  OBJ       -8.8906851429506456e-04
    Z_94_0_3  constraint1_940  1
    Z_94_0_3  constraint2_943  1
    Z_94_0_4  OBJ       -3.4775845499864977e-01
    Z_94_0_4  constraint1_940  1
    Z_608_0_0  OBJ       -7.8424777195975530e-04
    Z_608_0_0  constraint1_6080  1
    Z_608_0_0  constraint2_6080  1
    Z_608_0_1  OBJ       -1.3160324341403066e-03
    Z_608_0_1  constraint1_6080  1
    Z_608_0_1  constraint2_6081  1
    Z_608_0_2  OBJ       -5.4925219628095501e-01
    Z_608_0_2  constraint1_6080  1
    Z_608_0_2  constraint2_6082  1
    Z_608_0_3  OBJ       -8.8906851429506456e-04
    Z_608_0_3  constraint1_6080  1
    Z_608_0_3  constraint2_6083  1
    Z_608_0_4  OBJ       -3.4775845499864977e-01
    Z_608_0_4  constraint1_6080  1
    Z_633_0_0  OBJ       -1.0692095047609869e-03
    Z_633_0_0  constraint1_6330  1
    Z_633_0_0  constraint2_6330  1
    Z_633_0_1  OBJ       -1.4958439559204920e-03
    Z_633_0_1  constraint1_6330  1
    Z_633_0_1  constraint2_6331  1
    Z_633_0_2  OBJ       -6.8158655302208049e-01
    Z_633_0_2  constraint1_6330  1
    Z_633_0_2  constraint2_6332  1
    Z_633_0_3  OBJ       -2.1245646365413815e-03
    Z_633_0_3  constraint1_6330  1
    Z_633_0_3  constraint2_6333  1
    Z_633_0_4  OBJ       -2.1372382888069685e-01
    Z_633_0_4  constraint1_6330  1
    Z_322_0_0  OBJ       -2.0097985944601687e-03
    Z_322_0_0  constraint1_3220  1
    Z_322_0_0  constraint2_3220  1
    Z_322_0_1  OBJ       -1.6722490489910755e-03
    Z_322_0_1  constraint1_3220  1
    Z_322_0_1  constraint2_3221  1
    Z_322_0_2  OBJ       -6.8140540589949927e-01
    Z_322_0_2  constraint1_3220  1
    Z_322_0_2  constraint2_3222  1
    Z_322_0_3  OBJ       -1.6511574915076563e-03
    Z_322_0_3  constraint1_3220  1
    Z_322_0_3  constraint2_3223  1
    Z_322_0_4  OBJ       -2.1326138896554167e-01
    Z_322_0_4  constraint1_3220  1
    Z_315_0_0  OBJ       -5.8323464143926159e-04
    Z_315_0_0  constraint1_3150  1
    Z_315_0_0  constraint2_3150  1
    Z_315_0_1  OBJ       -1.6156627273836372e-03
    Z_315_0_1  constraint1_3150  1
    Z_315_0_1  constraint2_3151  1
    Z_315_0_2  OBJ       -7.0462260933418464e-01
    Z_315_0_2  constraint1_3150  1
    Z_315_0_2  constraint2_3152  1
    Z_315_0_3  OBJ       -8.9422642047744987e-04
    Z_315_0_3  constraint1_3150  1
    Z_315_0_3  constraint2_3153  1
    Z_315_0_4  OBJ       -1.9228426687651512e-01
    Z_315_0_4  constraint1_3150  1
    MARKER    'MARKER'                 'INTEND'
RHS
    RHS1      constraint1_2781  1
    RHS1      constraint1_2783  1
    RHS1      constraint1_2780  1
    RHS1      constraint1_2785  1
    RHS1      constraint1_2782  1
    RHS1      constraint1_7172  1
    RHS1      constraint1_7170  1
    RHS1      constraint1_7171  1
    RHS1      constraint1_4650  1
    RHS1      constraint1_3180  1
    RHS1      constraint1_940  1
    RHS1      constraint1_6080  1
    RHS1      constraint1_6330  1
    RHS1      constraint1_3220  1
    RHS1      constraint1_3150  1
    RHS1      constraint2_2780  1
    RHS1      constraint2_2781  1
    RHS1      constraint2_2782  1
    RHS1      constraint2_2783  1
    RHS1      constraint2_7170  1
    RHS1      constraint2_7171  1
    RHS1      constraint2_7172  1
    RHS1      constraint2_7173  1
    RHS1      constraint2_4650  1
    RHS1      constraint2_4651  1
    RHS1      constraint2_4652  1
    RHS1      constraint2_4653  1
    RHS1      constraint2_3180  1
    RHS1      constraint2_3181  1
    RHS1      constraint2_3182  1
    RHS1      constraint2_3183  1
    RHS1      constraint2_940  1
    RHS1      constraint2_941  1
    RHS1      constraint2_942  1
    RHS1      constraint2_943  1
    RHS1      constraint2_6080  1
    RHS1      constraint2_6081  1
    RHS1      constraint2_6082  1
    RHS1      constraint2_6083  1
    RHS1      constraint2_6330  1
    RHS1      constraint2_6331  1
    RHS1      constraint2_6332  1
    RHS1      constraint2_6333  1
    RHS1      constraint2_6930  1
    RHS1      constraint2_6931  1
    RHS1      constraint2_6932  1
    RHS1      constraint2_6933  1
    RHS1      constraint2_3220  1
    RHS1      constraint2_3221  1
    RHS1      constraint2_3222  1
    RHS1      constraint2_3223  1
    RHS1      constraint2_3150  1
    RHS1      constraint2_3151  1
    RHS1      constraint2_3152  1
    RHS1      constraint2_3153  1
BOUNDS
 UP BND1      Z_278_1_0  1
 UP BND1      Z_278_1_1  1
 UP BND1      Z_278_1_2  1
 UP BND1      Z_278_1_3  1
 UP BND1      Z_278_1_4  1
 UP BND1      Z_278_3_0  1
 UP BND1      Z_278_3_1  1
 UP BND1      Z_278_3_2  1
 UP BND1      Z_278_3_3  1
 UP BND1      Z_278_3_4  1
 UP BND1      Z_278_0_0  1
 UP BND1      Z_278_0_1  1
 UP BND1      Z_278_0_2  1
 UP BND1      Z_278_0_3  1
 UP BND1      Z_278_0_4  1
 UP BND1      Z_278_5_0  1
 UP BND1      Z_278_5_1  1
 UP BND1      Z_278_5_2  1
 UP BND1      Z_278_5_3  1
 UP BND1      Z_278_5_4  1
 UP BND1      Z_278_2_0  1
 UP BND1      Z_278_2_1  1
 UP BND1      Z_278_2_2  1
 UP BND1      Z_278_2_3  1
 UP BND1      Z_278_2_4  1
 UP BND1      Z_717_2_0  1
 UP BND1      Z_717_2_1  1
 UP BND1      Z_717_2_2  1
 UP BND1      Z_717_2_3  1
 UP BND1      Z_717_2_4  1
 UP BND1      Z_717_0_0  1
 UP BND1      Z_717_0_1  1
 UP BND1      Z_717_0_2  1
 UP BND1      Z_717_0_3  1
 UP BND1      Z_717_0_4  1
 UP BND1      Z_717_1_0  1
 UP BND1      Z_717_1_1  1
 UP BND1      Z_717_1_2  1
 UP BND1      Z_717_1_3  1
 UP BND1      Z_717_1_4  1
 UP BND1      Z_465_0_0  1
 UP BND1      Z_465_0_1  1
 UP BND1      Z_465_0_2  1
 UP BND1      Z_465_0_3  1
 UP BND1      Z_465_0_4  1
 UP BND1      Z_318_0_0  1
 UP BND1      Z_318_0_1  1
 UP BND1      Z_318_0_2  1
 UP BND1      Z_318_0_3  1
 UP BND1      Z_318_0_4  1
 UP BND1      Z_94_0_0  1
 UP BND1      Z_94_0_1  1
 UP BND1      Z_94_0_2  1
 UP BND1      Z_94_0_3  1
 UP BND1      Z_94_0_4  1
 UP BND1      Z_608_0_0  1
 UP BND1      Z_608_0_1  1
 UP BND1      Z_608_0_2  1
 UP BND1      Z_608_0_3  1
 UP BND1      Z_608_0_4  1
 UP BND1      Z_633_0_0  1
 UP BND1      Z_633_0_1  1
 UP BND1      Z_633_0_2  1
 UP BND1      Z_633_0_3  1
 UP BND1      Z_633_0_4  1
 UP BND1      Z_322_0_0  1
 UP BND1      Z_322_0_1  1
 UP BND1      Z_322_0_2  1
 UP BND1      Z_322_0_3  1
 UP BND1      Z_322_0_4  1
 UP BND1      Z_315_0_0  1
 UP BND1      Z_315_0_1  1
 UP BND1      Z_315_0_2  1
 UP BND1      Z_315_0_3  1
 UP BND1      Z_315_0_4  1
ENDATA
