output/molting_ilp.sol
# Solution for model molting_srl_ilp
# Objective value = 9.4451807961338350e+00
Z_278_1_0 0
Z_278_1_1 0
Z_278_1_2 0
Z_278_1_3 0
Z_278_1_4 1
Z_278_3_0 0
Z_278_3_1 0
Z_278_3_2 0
Z_278_3_3 0
Z_278_3_4 1
Z_278_0_0 0
Z_278_0_1 0
Z_278_0_2 0
Z_278_0_3 0
Z_278_0_4 1
Z_278_5_0 0
Z_278_5_1 0
Z_278_5_2 0
Z_278_5_3 0
Z_278_5_4 1
Z_278_2_0 0
Z_278_2_1 0
Z_278_2_2 1
Z_278_2_3 0
Z_278_2_4 0
Z_717_2_0 1
Z_717_2_1 0
Z_717_2_2 0
Z_717_2_3 0
Z_717_2_4 0
Z_717_0_0 0
Z_717_0_1 0
Z_717_0_2 0
Z_717_0_3 0
Z_717_0_4 1
Z_717_1_0 0
Z_717_1_1 0
Z_717_1_2 1
Z_717_1_3 0
Z_717_1_4 0
Z_465_0_0 0
Z_465_0_1 0
Z_465_0_2 1
Z_465_0_3 0
Z_465_0_4 0
Z_318_0_0 0
Z_318_0_1 0
Z_318_0_2 1
Z_318_0_3 0
Z_318_0_4 0
Z_94_0_0 0
Z_94_0_1 0
Z_94_0_2 1
Z_94_0_3 0
Z_94_0_4 0
Z_608_0_0 0
Z_608_0_1 0
Z_608_0_2 1
Z_608_0_3 0
Z_608_0_4 0
Z_633_0_0 0
Z_633_0_1 0
Z_633_0_2 1
Z_633_0_3 0
Z_633_0_4 0
Z_322_0_0 0
Z_322_0_1 0
Z_322_0_2 1
Z_322_0_3 0
Z_322_0_4 0
Z_315_0_0 0
Z_315_0_1 0
Z_315_0_2 1
Z_315_0_3 0
Z_315_0_4 0
